牛客/2019牛客暑期多校训练营/数据/9_D_Knapsack Cryptosystem/14.in
36 889247261193746
117898496918861 100303181962031 47517237091541 42248529312592 26442405975745 54674003571473 23160623978779 34093507860677 10231230152915 33085668726711 98564936613133 73755350204473 68055862914762 24683976745935 111367197440853 87934154698766 27198411957448 58421092761806 66702738179833 124599344466161 31580667034106 18548829113869 54705304474084 21226808099226 135207468476057 101733505279852 122506960674168 40882333135938 17665020128208 99892903908032 31638906348819 117478348996864 90657910490951 5871513114846 35067990710491 26392972435245
